(set-info :origin "SVCOMP13 benchmarks generated by Arie Gurfinkel")
(set-logic HORN)
(declare-fun cp-rel-bb.i.i.outer
             (Real
              Real
              Real
              Real
              Real
              Real
              Real
              Real
              Real
              Real
              Real
              Real
              Real
              Real
              Real
              Real
              Real
              Real)
             Bool)
(declare-fun cp-rel-entry () Bool)
(declare-fun cp-rel-bb54.i
             (Real
              Real
              Real
              Real
              Real
              Real
              Real
              Real
              Real
              Real
              Real
              Real
              Real
              Real
              Real
              Real
              Real
              Real)
             Bool)
(declare-fun cp-rel-bb8.i.i.i () Bool)
(declare-fun cp-rel-__UFO__0
             (Real
              Real
              Real
              Real
              Real
              Real
              Real
              Real
              Real
              Real
              Real
              Real
              Real
              Real
              Real
              Real
              Real
              Real
              Real
              Real
              Real
              Real
              Real
              Real
              Real
              Real
              Real
              Real
              Real
              Real
              Real
              Real
              Real
              Real
              Bool
              Real
              Real
              Real
              Real
              Real
              Real
              Real
              Real
              Real
              Real
              Real
              Real
              Real
              Real
              Bool
              Real
              Real
              Real
              Real
              Real
              Real
              Real
              Real)
             Bool)
(declare-fun cp-rel-bb.i.i
             (Real
              Real
              Real
              Real
              Real
              Real
              Real
              Real
              Real
              Real
              Real
              Real
              Real
              Real
              Real
              Real
              Real
              Real
              Real
              Real
              Bool
              Real
              Real
              Real
              Real
              Real
              Real
              Real
              Real
              Real
              Real
              Real
              Real
              Real
              Real)
             Bool)
(assert |cp-rel-entry|)
(assert (forall ((?A Real) (?B Real) (?C Real) (?D Real) (?E Real) (?F Real) (?G Real) (?H Real) (?I Real) (?J Real) (?K Real) (?L Real) (?M Real) (?N Real) (?O Real) (?P Real) (?Q Real) (?R Real) (?S Bool) )(let (($x579076 (|cp-rel-bb54.i| ?A ?B ?C ?D ?E ?F ?G ?H ?I ?J ?K ?L ?M ?N ?O ?P ?Q ?R)))
(let (($x839217 (= ?S true)))
(let (($x317157 (and |cp-rel-entry| (<= ?R 2.0) (>= ?Q 2.0) (<= ?Q 2.0) (>= ?P 0.0) (<= ?P 0.0) (>= ?O 0.0) (<= ?O 0.0) (>= ?N 0.0) (<= ?N 0.0) (>= ?M 0.0) (<= ?M 0.0) (>= ?L 0.0) (<= ?L 0.0) (>= ?K 0.0) (<= ?K 0.0) (>= ?J 0.0) (<= ?J 0.0) (>= ?I 0.0) (<= ?I 0.0) (>= ?H 0.0) (<= ?H 0.0) (>= ?G 0.0) (<= ?G 0.0) (>= ?F 0.0) (<= ?F 0.0) (>= ?E 0.0) (<= ?E 0.0) (>= ?D 0.0) (<= ?D 0.0) (>= ?C 2.0) (<= ?C 2.0) (>= ?B 0.0) (<= ?B 0.0) (>= ?A 0.0) (<= ?A 0.0) $x839217 (>= ?R 2.0))))
(=> $x317157 $x579076)))))
)
(assert (forall ((?A Real) (?B Real) (?C Real) (?D Real) (?E Real) (?F Real) (?G Real) (?H Real) (?I Real) (?J Real) (?K Real) (?L Real) (?M Real) (?N Real) (?O Real) (?P Real) (?Q Real) (?R Real) (?S Real) (?T Real) (?U Real) (?V Real) (?W Real) (?X Real) (?Y Real) (?Z Real) (?A1 Real) (?B1 Real) (?C1 Real) (?D1 Real) (?E1 Real) (?F1 Real) (?G1 Real) (?H1 Real) (?I1 Real) (?J1 Real) (?K1 Real) (?L1 Real) (?M1 Bool) (?N1 Real) (?O1 Real) (?P1 Real) (?Q1 Real) (?R1 Real) (?S1 Real) (?T1 Real) (?U1 Real) (?V1 Real) (?W1 Real) (?X1 Real) (?Y1 Real) (?Z1 Real) (?A2 Real) (?B2 Bool) (?C2 Bool) (?D2 Bool) (?E2 Bool) (?F2 Bool) (?G2 Bool) (?H2 Bool) (?I2 Bool) (?J2 Bool) (?K2 Bool) (?L2 Bool) (?M2 Bool) (?N2 Real) (?O2 Real) (?P2 Real) (?Q2 Real) (?R2 Bool) (?S2 Bool) (?T2 Bool) (?U2 Bool) (?V2 Bool) (?W2 Bool) (?X2 Bool) (?Y2 Bool) (?Z2 Bool) (?A3 Bool) (?B3 Bool) (?C3 Real) (?D3 Bool) (?E3 Bool) (?F3 Bool) (?G3 Real) (?H3 Real) (?I3 Real) (?J3 Bool) (?K3 Bool) (?L3 Bool) (?M3 Bool) (?N3 Bool) (?O3 Bool) (?P3 Bool) (?Q3 Real) (?R3 Bool) (?S3 Real) (?T3 Bool) (?U3 Bool) (?V3 Bool) (?W3 Bool) (?X3 Bool) )(let (($x545978 (|cp-rel-bb54.i| ?A ?B ?C ?D ?E ?F ?G ?H ?I ?J ?K ?L ?M ?N ?O ?P ?Q ?R)))
(let (($x281508 (not ?K2)))
(let (($x417205 (and ?F2 ?R2 $x281508 (<= ?N2 ?A2) (>= ?N2 ?A2) (<= ?O2 ?H1) (>= ?O2 ?H1) (<= ?P2 ?J1) (>= ?P2 ?J1))))
(let (($x135091 (and ?I2 ?M2 (<= ?N2 0.0) (>= ?N2 0.0) (<= ?O2 ?Z1) (>= ?O2 ?Z1) (<= ?P2 ?Q2) (>= ?P2 ?Q2))))
(let (($x533262 (not ?L2)))
(let (($x914382 (not ?X2)))
(let (($x154758 (or $x914382 ?Y2)))
(let (($x859657 (or (not ?A3) (and ?X2 ?B3 (<= ?C3 ?O1) (>= ?C3 ?O1)) (and ?S2 ?D3 ?Z2 (<= ?C3 0.0) (>= ?C3 0.0)) (and ?V2 ?E3 (<= ?C3 ?O1) (>= ?C3 ?O1)))))
(let (($x181062 (or (not ?A3) (and ?B3 (not ?D3) (not ?E3)) (and ?D3 (not ?B3) (not ?E3)) (and ?E3 (not ?B3) (not ?D3)))))
(let (($x912560 (|cp-rel-bb.i.i| ?S ?T ?U ?V ?W ?X ?Y ?Z ?A1 ?B1 ?C1 ?D1 ?E1 ?F1 ?G1 ?H1 ?I1 ?J1 ?K1 ?L1 ?M1 ?N1 ?O1 ?P1 ?Q1 ?R1 ?S1 ?T1 ?U1 ?V1 ?W1 ?X1 ?Y1 ?Z1 ?A2)))
(let (($x428942 (and $x912560 (= ?X3 (or ?N3 ?W3)) (= ?W3 (= ?H3 0.0)) (= ?V3 (= ?C3 0.0)) (= ?G3 (ite ?U3 2.0 ?S3)) (= ?U3 (= ?S3 1.0)) (= ?I3 (ite ?T3 2.0 ?Q3)) (= ?H3 (ite ?T3 0.0 ?L1)) (= ?T3 (= ?Q3 1.0)) (= ?Z2 (= ?S3 1.0)) (= ?U2 (= ?N1 1.0)) (= ?S3 (ite ?R3 1.0 ?P1)) (= ?R3 (= ?P1 0.0)) (= ?Q3 (ite ?P3 1.0 ?P2)) (= ?P3 (= ?P2 0.0)) (= ?Q2 (ite ?O3 ?J1 0.0)) (= ?O3 (= ?H1 ?Z1)) (= ?K2 (= ?A2 1.0)) (= ?H2 (or ?N3 ?M1)) (= ?N3 (or ?M3 ?L3)) (= ?M3 (or ?K3 ?J3)) (= ?L3 (= ?Y1 0.0)) (= ?K3 (= ?V1 0.0)) (= ?J3 (= ?T1 0.0)) (= ?E2 (= ?O1 0.0)) (>= ?R ?I3) (<= ?R ?I3) (>= ?Q ?H3) (<= ?Q ?H3) (>= ?P ?O2) (<= ?P ?O2) (>= ?O ?N2) (<= ?O ?N2) (>= ?N ?Z1) (<= ?N ?Z1) (>= ?M ?Y1) (<= ?M ?Y1) (>= ?L ?X1) (<= ?L ?X1) (>= ?K ?W1) (<= ?K ?W1) (>= ?J ?V1) (<= ?J ?V1) (>= ?I ?U1) (<= ?I ?U1) (>= ?H ?T1) (<= ?H ?T1) (>= ?G ?S1) (<= ?G ?S1) (>= ?F ?R1) (<= ?F ?R1) (>= ?E ?Q1) (<= ?E ?Q1) (>= ?D ?K1) (<= ?D ?K1) (>= ?C ?G3) (<= ?C ?G3) (>= ?B ?C3) (<= ?B ?C3) (>= ?A ?N1) (<= ?A ?N1) (= ?F3 true) (= ?A3 true) $x181062 $x859657 $x154758 (or $x914382 (and ?S2 ?Y2 (not ?Z2))) (or (not ?V2) ?W2) (or (not ?V2) (and ?L2 ?W2 (not ?U2))) (or (not ?S2) ?T2) (or (not ?S2) (and ?L2 ?T2 ?U2)) (or $x533262 (and ?M2 (not ?R2)) (and ?R2 (not ?M2))) (or $x533262 $x135091 $x417205) (or (not ?I2) ?J2) (or (not ?I2) (and ?F2 ?J2 ?K2)) (or (not ?F2) ?G2) (or (not ?F2) (and ?B2 ?G2 (not ?H2))) (or (not ?B2) ?D2) (or (not ?B2) (and ?C2 ?D2 (not ?E2))) (= ?F3 (or ?X3 ?V3)))))
(=> $x428942 $x545978)))))))))))))
)
(assert (forall ((?A Real) (?B Real) (?C Real) (?D Real) (?E Real) (?F Real) (?G Real) (?H Real) (?I Real) (?J Real) (?K Real) (?L Real) (?M Real) (?N Real) (?O Real) (?P Real) (?Q Real) (?R Real) (?S Real) (?T Real) (?U Real) (?V Real) (?W Real) (?X Real) (?Y Real) (?Z Real) (?A1 Real) (?B1 Real) (?C1 Real) (?D1 Real) (?E1 Real) (?F1 Real) (?G1 Real) (?H1 Real) (?I1 Bool) )(let (($x211794 (|cp-rel-bb.i.i.outer| ?P ?R ?S ?T ?U ?V ?W ?X ?Y ?Z ?A1 ?B1 ?C1 ?D1 ?E1 ?F1 ?G1 ?H1)))
(let (($x839217 (= ?I1 true)))
(let (($x405707 (|cp-rel-bb54.i| ?A ?B ?C ?D ?E ?F ?G ?H ?I ?J ?K ?L ?M ?N ?O ?P ?Q ?R)))
(let (($x121101 (and $x405707 (<= ?H1 ?Q) (>= ?G1 ?O) (<= ?G1 ?O) (>= ?F1 ?N) (<= ?F1 ?N) (>= ?E1 ?M) (<= ?E1 ?M) (>= ?D1 ?L) (<= ?D1 ?L) (>= ?C1 ?K) (<= ?C1 ?K) (>= ?B1 ?J) (<= ?B1 ?J) (>= ?A1 ?I) (<= ?A1 ?I) (>= ?Z ?H) (<= ?Z ?H) (>= ?Y ?G) (<= ?Y ?G) (>= ?X ?F) (<= ?X ?F) (>= ?W ?E) (<= ?W ?E) (>= ?V ?D) (<= ?V ?D) (>= ?U ?C) (<= ?U ?C) (>= ?T ?B) (<= ?T ?B) (>= ?S ?A) (<= ?S ?A) $x839217 (>= ?H1 ?Q))))
(=> $x121101 $x211794))))))
)
(assert (forall ((?A Real) (?B Real) (?C Real) (?D Real) (?E Real) (?F Real) (?G Real) (?H Real) (?I Real) (?J Real) (?K Real) (?L Real) (?M Real) (?N Real) (?O Real) (?P Real) (?Q Real) (?R Real) (?S Real) (?T Real) (?U Bool) (?V Real) (?W Real) (?X Real) (?Y Real) (?Z Real) (?A1 Real) (?B1 Real) (?C1 Real) (?D1 Real) (?E1 Real) (?F1 Real) (?G1 Real) (?H1 Real) (?I1 Real) (?J1 Bool) (?K1 Bool) (?L1 Bool) (?M1 Bool) (?N1 Bool) (?O1 Bool) (?P1 Bool) (?Q1 Bool) (?R1 Bool) (?S1 Bool) (?T1 Real) (?U1 Real) (?V1 Real) (?W1 Real) (?X1 Real) (?Y1 Real) (?Z1 Real) (?A2 Real) (?B2 Real) (?C2 Real) (?D2 Real) (?E2 Real) (?F2 Real) (?G2 Real) (?H2 Real) (?I2 Real) (?J2 Bool) (?K2 Bool) (?L2 Bool) (?M2 Bool) (?N2 Bool) (?O2 Bool) (?P2 Bool) (?Q2 Bool) (?R2 Bool) (?S2 Bool) (?T2 Bool) (?U2 Bool) (?V2 Bool) (?W2 Bool) (?X2 Bool) (?Y2 Bool) (?Z2 Bool) (?A3 Bool) (?B3 Bool) (?C3 Bool) (?D3 Real) (?E3 Real) (?F3 Real) (?G3 Real) (?H3 Real) (?I3 Real) (?J3 Real) (?K3 Real) (?L3 Real) (?M3 Real) (?N3 Bool) (?O3 Bool) (?P3 Bool) (?Q3 Bool) (?R3 Bool) (?S3 Bool) (?T3 Bool) (?U3 Bool) (?V3 Bool) (?W3 Bool) (?X3 Bool) (?Y3 Bool) (?Z3 Bool) (?A4 Bool) (?B4 Bool) (?C4 Real) (?D4 Real) (?E4 Real) (?F4 Real) (?G4 Real) (?H4 Real) (?I4 Bool) (?J4 Bool) (?K4 Bool) (?L4 Bool) (?M4 Bool) (?N4 Bool) (?O4 Bool) (?P4 Bool) (?Q4 Bool) (?R4 Bool) (?S4 Bool) (?T4 Bool) (?U4 Bool) (?V4 Bool) (?W4 Real) (?X4 Real) (?Y4 Real) (?Z4 Real) (?A5 Real) (?B5 Real) (?C5 Bool) (?D5 Bool) (?E5 Bool) (?F5 Bool) (?G5 Bool) (?H5 Bool) (?I5 Bool) (?J5 Bool) (?K5 Bool) (?L5 Bool) (?M5 Bool) (?N5 Bool) (?O5 Bool) (?P5 Bool) (?Q5 Real) (?R5 Real) (?S5 Real) (?T5 Real) (?U5 Real) (?V5 Bool) (?W5 Bool) (?X5 Bool) (?Y5 Bool) (?Z5 Bool) (?A6 Bool) (?B6 Bool) (?C6 Bool) (?D6 Bool) (?E6 Bool) (?F6 Bool) (?G6 Bool) (?H6 Bool) (?I6 Bool) (?J6 Bool) (?K6 Bool) (?L6 Bool) (?M6 Bool) (?N6 Bool) (?O6 Bool) (?P6 Bool) (?Q6 Bool) (?R6 Bool) (?S6 Bool) (?T6 Real) (?U6 Real) (?V6 Bool) (?W6 Bool) (?X6 Real) (?Y6 Bool) (?Z6 Bool) (?A7 Bool) (?B7 Real) (?C7 Bool) (?D7 Bool) (?E7 Bool) (?F7 Real) (?G7 Real) )(let (($x510769 (|cp-rel-bb.i.i.outer| ?P ?R ?T1 ?U1 ?V1 ?W1 ?X1 ?Y1 ?Z1 ?A2 ?B2 ?C2 ?D2 ?E2 ?F2 ?G2 ?H2 ?I2)))
(let (($x555021 (>= ?M3 ?E1)))
(let (($x842913 (<= ?M3 ?E1)))
(let (($x324028 (>= ?K3 ?D1)))
(let (($x81050 (<= ?K3 ?D1)))
(let (($x131983 (>= ?I3 ?B1)))
(let (($x318311 (<= ?I3 ?B1)))
(let (($x246116 (>= ?H3 ?Z)))
(let (($x257094 (<= ?H3 ?Z)))
(let (($x199366 (>= ?G3 ?Y)))
(let (($x478415 (<= ?G3 ?Y)))
(let (($x694486 (>= ?F3 ?X)))
(let (($x279675 (<= ?F3 ?X)))
(let (($x353416 (and ?J1 ?Q3 ?N1 (<= ?D3 ?V) (>= ?D3 ?V) (<= ?E3 ?W) (>= ?E3 ?W) $x279675 $x694486 $x478415 $x199366 $x257094 $x246116 $x318311 $x131983 $x81050 $x324028 $x842913 $x555021)))
(let (($x875508 (and ?J2 ?P3 ?N2 (<= ?D3 ?V) (>= ?D3 ?V) (<= ?E3 ?W) (>= ?E3 ?W) $x279675 $x694486 $x478415 $x199366 $x257094 $x246116 $x318311 $x131983 $x81050 $x324028 $x842913 $x555021)))
(let (($x588887 (>= ?E3 2.0)))
(let (($x841143 (<= ?E3 2.0)))
(let (($x863403 (not ?V2)))
(let (($x848901 (and ?R2 ?O3 $x863403 (<= ?D3 1.0) (>= ?D3 1.0) $x841143 $x588887 (<= ?F3 0.0) (>= ?F3 0.0) $x478415 $x199366 $x257094 $x246116 $x318311 $x131983 $x81050 $x324028 $x842913 $x555021)))
(let (($x857883 (not ?A3)))
(let (($x807690 (and ?O2 ?N3 $x857883 (<= ?D3 1.0) (>= ?D3 1.0) $x841143 $x588887 (<= ?F3 0.0) (>= ?F3 0.0) $x478415 $x199366 $x257094 $x246116 $x318311 $x131983 $x81050 $x324028 $x842913 $x555021)))
(let (($x865534 (and ?W2 ?C3 (<= ?D3 2.0) (>= ?D3 2.0) $x841143 $x588887 $x279675 $x694486 (<= ?G3 ?S) (>= ?G3 ?S) (<= ?H3 0.0) (>= ?H3 0.0) (<= ?I3 ?J3) (>= ?I3 ?J3) (<= ?K3 ?L3) (>= ?K3 ?L3) (<= ?M3 ?S) (>= ?M3 ?S))))
(let (($x439917 (not ?B3)))
(let (($x328009 (or $x439917 (and ?C3 (not ?N3) (not ?O3) (not ?P3) (not ?Q3)) (and ?N3 (not ?C3) (not ?O3) (not ?P3) (not ?Q3)) (and ?O3 (not ?C3) (not ?N3) (not ?P3) (not ?Q3)) (and ?P3 (not ?C3) (not ?N3) (not ?O3) (not ?Q3)) (and ?Q3 (not ?C3) (not ?N3) (not ?O3) (not ?P3)))))
(let (($x623104 (>= ?G4 ?G1)))
(let (($x234781 (<= ?G4 ?G1)))
(let (($x421406 (>= ?C4 ?G3)))
(let (($x398287 (<= ?C4 ?G3)))
(let (($x573875 (not ?T3)))
(let (($x83082 (and ?B3 ?K4 $x573875 $x398287 $x421406 (<= ?E4 ?A1) (>= ?E4 ?A1) (<= ?F4 ?I3) (>= ?F4 ?I3) $x234781 $x623104)))
(let (($x250822 (and ?R3 ?J4 ?W3 $x398287 $x421406 (<= ?E4 ?A1) (>= ?E4 ?A1) (<= ?F4 ?I3) (>= ?F4 ?I3) $x234781 $x623104)))
(let (($x270487 (and ?U3 ?I4 (not ?Z3) $x398287 $x421406 (<= ?E4 1.0) (>= ?E4 1.0) (<= ?F4 2.0) (>= ?F4 2.0) $x234781 $x623104)))
(let (($x71856 (and ?X3 ?B4 (<= ?C4 ?D4) (>= ?C4 ?D4) (<= ?E4 1.0) (>= ?E4 1.0) (<= ?F4 2.0) (>= ?F4 2.0) (<= ?G4 ?H4) (>= ?G4 ?H4))))
(let (($x579388 (not ?A4)))
(let (($x449896 (or $x579388 (and ?B4 (not ?I4) (not ?J4) (not ?K4)) (and ?I4 (not ?B4) (not ?J4) (not ?K4)) (and ?J4 (not ?B4) (not ?I4) (not ?K4)) (and ?K4 (not ?B4) (not ?I4) (not ?J4)))))
(let (($x235580 (>= ?A5 ?G4)))
(let (($x586277 (<= ?A5 ?G4)))
(let (($x393440 (>= ?W4 ?C4)))
(let (($x479961 (<= ?W4 ?C4)))
(let (($x45419 (not ?N4)))
(let (($x864354 (and ?A4 ?E5 $x45419 $x479961 $x393440 (<= ?Y4 ?C1) (>= ?Y4 ?C1) (<= ?Z4 ?K3) (>= ?Z4 ?K3) $x586277 $x235580)))
(let (($x364816 (and ?L4 ?D5 ?Q4 $x479961 $x393440 (<= ?Y4 ?C1) (>= ?Y4 ?C1) (<= ?Z4 ?K3) (>= ?Z4 ?K3) $x586277 $x235580)))
(let (($x272290 (and ?O4 ?C5 (not ?T4) $x479961 $x393440 (<= ?Y4 1.0) (>= ?Y4 1.0) (<= ?Z4 2.0) (>= ?Z4 2.0) $x586277 $x235580)))
(let (($x867544 (and ?R4 ?V4 (<= ?W4 ?X4) (>= ?W4 ?X4) (<= ?Y4 1.0) (>= ?Y4 1.0) (<= ?Z4 2.0) (>= ?Z4 2.0) (<= ?A5 ?B5) (>= ?A5 ?B5))))
(let (($x574329 (not ?U4)))
(let (($x788216 (or $x574329 (and ?V4 (not ?C5) (not ?D5) (not ?E5)) (and ?C5 (not ?V4) (not ?D5) (not ?E5)) (and ?D5 (not ?V4) (not ?C5) (not ?E5)) (and ?E5 (not ?V4) (not ?C5) (not ?D5)))))
(let (($x583077 (>= ?U5 ?I1)))
(let (($x53709 (<= ?U5 ?I1)))
(let (($x298808 (>= ?T5 ?H1)))
(let (($x626603 (<= ?T5 ?H1)))
(let (($x131653 (>= ?Q5 ?H3)))
(let (($x583235 (<= ?Q5 ?H3)))
(let (($x157973 (not ?H5)))
(let (($x230055 (and ?U4 ?X5 $x157973 $x583235 $x131653 (<= ?R5 ?F1) (>= ?R5 ?F1) (<= ?S5 ?A5) (>= ?S5 ?A5) $x626603 $x298808 $x53709 $x583077)))
(let (($x338500 (and ?F5 ?W5 ?K5 $x583235 $x131653 (<= ?R5 ?F1) (>= ?R5 ?F1) (<= ?S5 ?A5) (>= ?S5 ?A5) $x626603 $x298808 $x53709 $x583077)))
(let (($x209284 (not ?N5)))
(let (($x687128 (and ?I5 ?V5 $x209284 $x583235 $x131653 (<= ?R5 1.0) (>= ?R5 1.0) (<= ?S5 2.0) (>= ?S5 2.0) $x626603 $x298808 $x53709 $x583077)))
(let (($x138418 (and ?L5 ?P5 (<= ?Q5 1.0) (>= ?Q5 1.0) (<= ?R5 1.0) (>= ?R5 1.0) (<= ?S5 2.0) (>= ?S5 2.0) (<= ?T5 ?W4) (>= ?T5 ?W4) (<= ?U5 1.0) (>= ?U5 1.0))))
(let (($x467945 (not ?O5)))
(let (($x842358 (or $x467945 (and ?P5 (not ?V5) (not ?W5) (not ?X5)) (and ?V5 (not ?P5) (not ?W5) (not ?X5)) (and ?W5 (not ?P5) (not ?V5) (not ?X5)) (and ?X5 (not ?P5) (not ?V5) (not ?W5)))))
(let (($x914382 (not ?G6)))
(let (($x154758 (or $x914382 ?H6)))
(let (($x42245 (>= ?I2 2.0)))
(let (($x102937 (<= ?I2 2.0)))
(let (($x279075 (>= ?H2 ?U5)))
(let (($x764244 (<= ?H2 ?U5)))
(let (($x255821 (>= ?G2 ?T5)))
(let (($x241820 (<= ?G2 ?T5)))
(let (($x590040 (>= ?F2 ?S5)))
(let (($x307138 (<= ?F2 ?S5)))
(let (($x433604 (>= ?E2 ?R5)))
(let (($x623490 (<= ?E2 ?R5)))
(let (($x847606 (>= ?D2 ?M3)))
(let (($x365348 (<= ?D2 ?M3)))
(let (($x450499 (>= ?C2 ?Z4)))
(let (($x231117 (<= ?C2 ?Z4)))
(let (($x121122 (>= ?B2 ?Y4)))
(let (($x515772 (<= ?B2 ?Y4)))
(let (($x610884 (>= ?A2 ?F4)))
(let (($x293691 (<= ?A2 ?F4)))
(let (($x555565 (>= ?Z1 ?E4)))
(let (($x331189 (<= ?Z1 ?E4)))
(let (($x890950 (>= ?Y1 ?Q5)))
(let (($x171434 (<= ?Y1 ?Q5)))
(let (($x193364 (>= ?X1 ?W4)))
(let (($x318324 (<= ?X1 ?W4)))
(let (($x11304 (>= ?W1 ?P)))
(let (($x693843 (<= ?W1 ?P)))
(let (($x821336 (>= ?V1 ?F3)))
(let (($x576859 (<= ?V1 ?F3)))
(let (($x174579 (>= ?U1 ?E3)))
(let (($x238275 (<= ?U1 ?E3)))
(let (($x415943 (>= ?T1 ?D3)))
(let (($x889673 (<= ?T1 ?D3)))
(let (($x415886 (and ?G6 (not ?S6) $x889673 $x415943 $x238275 $x174579 $x576859 $x821336 $x693843 $x11304 $x318324 $x193364 $x171434 $x890950 $x331189 $x555565 $x293691 $x610884 $x515772 $x121122 $x231117 $x450499 $x365348 $x847606 $x623490 $x433604 $x307138 $x590040 $x241820 $x255821 $x764244 $x279075 $x102937 $x42245)))
(let (($x872607 (not ?K6)))
(let (($x118871 (and ?D6 $x872607 $x889673 $x415943 $x238275 $x174579 $x576859 $x821336 $x693843 $x11304 $x318324 $x193364 $x171434 $x890950 $x331189 $x555565 $x293691 $x610884 $x515772 $x121122 $x231117 $x450499 $x365348 $x847606 $x623490 $x433604 $x307138 $x590040 $x241820 $x255821 $x764244 $x279075 $x102937 $x42245)))
(let (($x31318 (and ?I6 ?N6 $x889673 $x415943 (<= ?U1 0.0) (>= ?U1 0.0) $x576859 $x821336 $x693843 $x11304 $x318324 $x193364 $x171434 $x890950 $x331189 $x555565 $x293691 $x610884 $x515772 $x121122 $x231117 $x450499 $x365348 $x847606 $x623490 $x433604 $x307138 $x590040 $x241820 $x255821 $x764244 $x279075 $x102937 $x42245)))
(let (($x853390 (and ?L6 (not ?Q6) $x889673 $x415943 $x238275 $x174579 $x576859 $x821336 $x693843 $x11304 $x318324 $x193364 $x171434 $x890950 $x331189 $x555565 $x293691 $x610884 $x515772 $x121122 $x231117 $x450499 $x365348 $x847606 $x623490 $x433604 $x307138 $x590040 $x241820 $x255821 $x764244 $x279075 $x102937 $x42245)))
(let (($x863629 (and ?O6 $x889673 $x415943 (<= ?U1 0.0) (>= ?U1 0.0) $x576859 $x821336 $x693843 $x11304 $x318324 $x193364 $x171434 $x890950 $x331189 $x555565 $x293691 $x610884 $x515772 $x121122 $x231117 $x450499 $x365348 $x847606 $x623490 $x433604 $x307138 $x590040 $x241820 $x255821 $x764244 $x279075 $x102937 $x42245)))
(let (($x237186 (|cp-rel-bb.i.i| ?A ?B ?C ?D ?E ?F ?G ?H ?I ?J ?K ?L ?M ?N ?O ?P ?Q ?R ?S ?T ?U ?V ?W ?X ?Y ?Z ?A1 ?B1 ?C1 ?D1 ?E1 ?F1 ?G1 ?H1 ?I1)))
(let (($x872293 (and $x237186 (= ?N6 (= ?F3 1.0)) (= ?S6 (= ?D3 2.0)) (= ?K6 (= ?D3 1.0)) (= ?F6 (not (<= 2.0 ?D3))) (= ?C6 (= ?G7 0.0)) (= ?N5 (= ?F1 1.0)) (= ?K5 (= ?F7 0.0)) (= ?H5 (= ?A5 0.0)) (= ?B5 (ite ?E7 0.0 ?G4)) (= ?E7 (= ?F1 1.0)) (= ?X4 (+ 1.0 ?C4)) (= ?T4 (and ?D7 ?C7)) (= ?D7 (= ?H3 0.0)) (= ?C7 (= ?C1 1.0)) (= ?Q4 (= ?B7 0.0)) (= ?N4 (= ?K3 0.0)) (= ?H4 (ite ?A7 0.0 ?G1)) (= ?A7 (= ?F1 1.0)) (= ?D4 (+ 1.0 ?G3)) (= ?Z3 (and ?Z6 ?Y6)) (= ?Z6 (= ?H3 0.0)) (= ?Y6 (= ?A1 1.0)) (= ?W3 (= ?X6 0.0)) (= ?T3 (= ?I3 0.0)) (= ?L3 (ite ?W6 0.0 ?D1)) (= ?W6 (= ?C1 1.0)) (= ?J3 (ite ?V6 0.0 ?B1)) (= ?V6 (= ?A1 1.0)) (= ?Y2 (= ?U6 ?S)) (= ?U6 (+ 1.0 ?E1)) (= ?V2 (= ?V 2.0)) (= ?A3 (= ?V 1.0)) (= ?Q2 (not (<= 2.0 ?V))) (= ?N1 (or ?S1 ?U)) (= ?S1 (or ?R1 ?Q1)) (= ?R1 (or ?P1 ?O1)) (= ?Q1 (= ?G1 0.0)) (= ?P1 (= ?D1 0.0)) (= ?O1 (= ?B1 0.0)) (= ?N2 (= ?T6 0.0)) (= ?M1 (= ?W 0.0)) (or $x863629 $x853390 $x31318 $x118871 $x415886) (or (not ?O6) (and ?P6 (not ?R6)) (and ?R6 (not ?P6))) (or (not ?O6) (and ?L6 ?P6 ?Q6) (and ?G6 ?R6 ?S6)) (or (not ?L6) ?M6) (or (not ?L6) (and ?I6 ?M6 (not ?N6))) (or (not ?I6) ?J6) (or (not ?I6) (and ?D6 ?J6 ?K6)) $x154758 (or $x914382 (and ?A6 ?H6 (not ?F6))) (or (not ?D6) ?E6) (or (not ?D6) (and ?A6 ?E6 ?F6)) (or (not ?A6) ?B6) (or (not ?A6) (and ?Y5 ?B6 (not ?C6))) (or (not ?Y5) ?Z5) (or (not ?Y5) (and ?O5 ?Z5 ?U)) $x842358 (or $x467945 $x138418 $x687128 $x338500 $x230055) (or (not ?L5) ?M5) (or (not ?L5) (and ?I5 ?M5 ?N5)) (or (not ?I5) ?J5) (or (not ?I5) (and ?F5 ?J5 (not ?K5))) (or (not ?F5) ?G5) (or (not ?F5) (and ?U4 ?G5 ?H5)) $x788216 (or $x574329 $x867544 $x272290 $x364816 $x864354) (or (not ?R4) ?S4) (or (not ?R4) (and ?O4 ?S4 ?T4)) (or (not ?O4) ?P4) (or (not ?O4) (and ?L4 ?P4 (not ?Q4))) (or (not ?L4) ?M4) (or (not ?L4) (and ?A4 ?M4 ?N4)) $x449896 (or $x579388 $x71856 $x270487 $x250822 $x83082) (or (not ?X3) ?Y3) (or (not ?X3) (and ?U3 ?Y3 ?Z3)) (or (not ?U3) ?V3) (or (not ?U3) (and ?R3 ?V3 (not ?W3))) (or (not ?R3) ?S3) (or (not ?R3) (and ?B3 ?S3 ?T3)) $x328009 (or $x439917 $x865534 $x807690 $x848901 $x875508 $x353416) (or (not ?W2) (and ?X2 (not ?Z2)) (and ?Z2 (not ?X2))) (or (not ?W2) (and ?T2 ?X2 ?Y2) (and ?O2 ?Z2 ?A3)) (or (not ?T2) ?U2) (or (not ?T2) (and ?R2 ?U2 ?V2)) (or (not ?R2) ?S2) (or (not ?R2) (and ?L2 ?S2 (not ?Q2))) (or (not ?O2) ?P2) (or (not ?O2) (and ?L2 ?P2 ?Q2)) (or (not ?L2) ?M2) (or (not ?L2) (and ?J2 ?M2 (not ?N2))) (or (not ?J1) ?L1) (or (not ?J1) (and ?K1 ?L1 (not ?M1))) (or (not ?J2) ?K2) (or (not ?J2) (and ?K1 ?K2 ?M1)) (= ?Q6 (= ?D3 2.0)))))
(=> $x872293 $x510769))))))))))))))))))))))))))))))))))))))))))))))))))))))))))))))))))))))))))))))))))))))))))))))))))))))))
)
(assert (forall ((?A Real) (?B Real) (?C Real) (?D Real) (?E Real) (?F Real) (?G Real) (?H Real) (?I Real) (?J Real) (?K Real) (?L Real) (?M Real) (?N Real) (?O Real) (?P Real) (?Q Real) (?R Real) (?S Bool) (?T Real) (?U Real) (?V Real) (?W Real) (?X Real) (?Y Real) (?Z Real) (?A1 Real) (?B1 Real) (?C1 Real) (?D1 Real) (?E1 Real) (?F1 Real) (?G1 Real) (?H1 Real) (?I1 Real) (?J1 Real) (?K1 Real) (?L1 Real) (?M1 Real) (?N1 Real) (?O1 Real) (?P1 Real) (?Q1 Real) (?R1 Real) (?S1 Real) (?T1 Real) (?U1 Real) (?V1 Real) (?W1 Real) (?X1 Bool) )(let (($x170426 (|cp-rel-bb.i.i| ?A ?B ?C ?D ?E ?F ?G ?H ?I ?J ?K ?L ?M ?N ?O ?P ?Q ?R ?K1 ?W1 ?S ?T ?U ?V ?W ?X ?Y ?Z ?A1 ?B1 ?C1 ?D1 ?E1 ?F1 ?G1)))
(let (($x839217 (= ?X1 true)))
(let (($x867649 (|cp-rel-bb.i.i.outer| ?P ?R ?H1 ?I1 ?J1 ?K1 ?L1 ?M1 ?N1 ?O1 ?P1 ?Q1 ?R1 ?S1 ?T1 ?U1 ?V1 ?W1)))
(let (($x792612 (and $x867649 (>= ?G1 ?V1) (<= ?G1 ?V1) (>= ?F1 ?U1) (<= ?F1 ?U1) (>= ?E1 ?T1) (<= ?E1 ?T1) (>= ?D1 ?S1) (<= ?D1 ?S1) (>= ?C1 ?R1) (<= ?C1 ?R1) (>= ?B1 ?Q1) (<= ?B1 ?Q1) (>= ?A1 ?P1) (<= ?A1 ?P1) (>= ?Z ?O1) (<= ?Z ?O1) (>= ?Y ?N1) (<= ?Y ?N1) (>= ?X ?M1) (<= ?X ?M1) (>= ?W ?L1) (<= ?W ?L1) (>= ?V ?J1) (<= ?V ?J1) (>= ?U ?I1) (<= ?U ?I1) (>= ?T ?H1) (<= ?T ?H1) $x839217 (= ?S (= ?W1 0.0)))))
(=> $x792612 $x170426))))))
)
(assert (forall ((?A Real) (?B Real) (?C Real) (?D Real) (?E Real) (?F Real) (?G Real) (?H Real) (?I Real) (?J Real) (?K Real) (?L Real) (?M Real) (?N Real) (?O Real) (?P Real) (?Q Real) (?R Real) (?S Real) (?T Real) (?U Bool) (?V Real) (?W Real) (?X Real) (?Y Real) (?Z Real) (?A1 Real) (?B1 Real) (?C1 Real) (?D1 Real) (?E1 Real) (?F1 Real) (?G1 Real) (?H1 Real) (?I1 Real) (?J1 Bool) (?K1 Bool) (?L1 Bool) (?M1 Bool) (?N1 Bool) (?O1 Bool) (?P1 Bool) (?Q1 Bool) (?R1 Bool) (?S1 Bool) (?T1 Bool) (?U1 Bool) (?V1 Bool) (?W1 Bool) (?X1 Bool) (?Y1 Bool) (?Z1 Bool) (?A2 Bool) (?B2 Bool) (?C2 Bool) (?D2 Bool) (?E2 Bool) (?F2 Bool) (?G2 Bool) (?H2 Bool) (?I2 Bool) (?J2 Bool) (?K2 Bool) (?L2 Bool) (?M2 Bool) (?N2 Real) (?O2 Real) (?P2 Real) (?Q2 Real) (?R2 Real) (?S2 Real) (?T2 Real) (?U2 Real) (?V2 Real) (?W2 Real) (?X2 Bool) (?Y2 Bool) (?Z2 Bool) (?A3 Bool) (?B3 Bool) (?C3 Bool) (?D3 Bool) (?E3 Bool) (?F3 Bool) (?G3 Bool) (?H3 Bool) (?I3 Bool) (?J3 Bool) (?K3 Bool) (?L3 Bool) (?M3 Real) (?N3 Real) (?O3 Real) (?P3 Real) (?Q3 Real) (?R3 Real) (?S3 Bool) (?T3 Bool) (?U3 Bool) (?V3 Bool) (?W3 Bool) (?X3 Bool) (?Y3 Bool) (?Z3 Bool) (?A4 Bool) (?B4 Bool) (?C4 Bool) (?D4 Bool) (?E4 Bool) (?F4 Bool) (?G4 Real) (?H4 Real) (?I4 Real) (?J4 Real) (?K4 Real) (?L4 Real) (?M4 Bool) (?N4 Bool) (?O4 Bool) (?P4 Bool) (?Q4 Bool) (?R4 Bool) (?S4 Bool) (?T4 Bool) (?U4 Bool) (?V4 Bool) (?W4 Bool) (?X4 Bool) (?Y4 Bool) (?Z4 Bool) (?A5 Real) (?B5 Real) (?C5 Real) (?D5 Real) (?E5 Real) (?F5 Bool) (?G5 Bool) (?H5 Bool) (?I5 Bool) (?J5 Bool) (?K5 Bool) (?L5 Real) (?M5 Real) (?N5 Bool) (?O5 Bool) (?P5 Real) (?Q5 Bool) (?R5 Bool) (?S5 Bool) (?T5 Real) (?U5 Bool) (?V5 Bool) (?W5 Bool) (?X5 Real) (?Y5 Real) (?Z5 Real) (?A6 Real) (?B6 Real) (?C6 Real) (?D6 Real) (?E6 Real) (?F6 Real) (?G6 Real) (?H6 Real) (?I6 Real) (?J6 Real) (?K6 Real) (?L6 Real) (?M6 Real) )(let (($x111033 (|cp-rel-bb.i.i| ?A ?B ?C ?D ?E ?F ?G ?H ?I ?J ?K ?L ?M ?N ?O ?P ?Q ?R ?S ?T ?U ?Z5 ?A6 ?B6 ?C6 ?D6 ?E6 ?F6 ?G6 ?H6 ?I6 ?J6 ?K6 ?L6 ?M6)))
(let (($x382644 (>= ?W2 ?E1)))
(let (($x523397 (<= ?W2 ?E1)))
(let (($x515432 (>= ?U2 ?D1)))
(let (($x259870 (<= ?U2 ?D1)))
(let (($x398596 (>= ?S2 ?B1)))
(let (($x611446 (<= ?S2 ?B1)))
(let (($x611948 (>= ?R2 ?Z)))
(let (($x582836 (<= ?R2 ?Z)))
(let (($x393960 (>= ?Q2 ?Y)))
(let (($x367075 (<= ?Q2 ?Y)))
(let (($x172233 (>= ?P2 ?X)))
(let (($x855691 (<= ?P2 ?X)))
(let (($x243378 (and ?J1 ?A3 ?N1 (<= ?N2 ?V) (>= ?N2 ?V) (<= ?O2 ?W) (>= ?O2 ?W) $x855691 $x172233 $x367075 $x393960 $x582836 $x611948 $x611446 $x398596 $x259870 $x515432 $x523397 $x382644)))
(let (($x525134 (and ?T1 ?Z2 ?X1 (<= ?N2 ?V) (>= ?N2 ?V) (<= ?O2 ?W) (>= ?O2 ?W) $x855691 $x172233 $x367075 $x393960 $x582836 $x611948 $x611446 $x398596 $x259870 $x515432 $x523397 $x382644)))
(let (($x392768 (>= ?O2 2.0)))
(let (($x444097 (<= ?O2 2.0)))
(let (($x530439 (and ?B2 ?Y2 (not ?F2) (<= ?N2 1.0) (>= ?N2 1.0) $x444097 $x392768 (<= ?P2 0.0) (>= ?P2 0.0) $x367075 $x393960 $x582836 $x611948 $x611446 $x398596 $x259870 $x515432 $x523397 $x382644)))
(let (($x867134 (and ?Y1 ?X2 (not ?K2) (<= ?N2 1.0) (>= ?N2 1.0) $x444097 $x392768 (<= ?P2 0.0) (>= ?P2 0.0) $x367075 $x393960 $x582836 $x611948 $x611446 $x398596 $x259870 $x515432 $x523397 $x382644)))
(let (($x609887 (and ?G2 ?M2 (<= ?N2 2.0) (>= ?N2 2.0) $x444097 $x392768 $x855691 $x172233 (<= ?Q2 ?S) (>= ?Q2 ?S) (<= ?R2 0.0) (>= ?R2 0.0) (<= ?S2 ?T2) (>= ?S2 ?T2) (<= ?U2 ?V2) (>= ?U2 ?V2) (<= ?W2 ?S) (>= ?W2 ?S))))
(let (($x164713 (or (not ?L2) (and ?M2 (not ?X2) (not ?Y2) (not ?Z2) (not ?A3)) (and ?X2 (not ?M2) (not ?Y2) (not ?Z2) (not ?A3)) (and ?Y2 (not ?M2) (not ?X2) (not ?Z2) (not ?A3)) (and ?Z2 (not ?M2) (not ?X2) (not ?Y2) (not ?A3)) (and ?A3 (not ?M2) (not ?X2) (not ?Y2) (not ?Z2)))))
(let (($x365026 (>= ?Q3 ?G1)))
(let (($x565644 (<= ?Q3 ?G1)))
(let (($x193912 (>= ?M3 ?Q2)))
(let (($x875528 (<= ?M3 ?Q2)))
(let (($x341615 (not ?D3)))
(let (($x150856 (and ?L2 ?U3 $x341615 $x875528 $x193912 (<= ?O3 ?A1) (>= ?O3 ?A1) (<= ?P3 ?S2) (>= ?P3 ?S2) $x565644 $x365026)))
(let (($x895353 (and ?B3 ?T3 ?G3 $x875528 $x193912 (<= ?O3 ?A1) (>= ?O3 ?A1) (<= ?P3 ?S2) (>= ?P3 ?S2) $x565644 $x365026)))
(let (($x266332 (and ?E3 ?S3 (not ?J3) $x875528 $x193912 (<= ?O3 1.0) (>= ?O3 1.0) (<= ?P3 2.0) (>= ?P3 2.0) $x565644 $x365026)))
(let (($x864910 (and ?H3 ?L3 (<= ?M3 ?N3) (>= ?M3 ?N3) (<= ?O3 1.0) (>= ?O3 1.0) (<= ?P3 2.0) (>= ?P3 2.0) (<= ?Q3 ?R3) (>= ?Q3 ?R3))))
(let (($x856230 (or (not ?K3) (and ?L3 (not ?S3) (not ?T3) (not ?U3)) (and ?S3 (not ?L3) (not ?T3) (not ?U3)) (and ?T3 (not ?L3) (not ?S3) (not ?U3)) (and ?U3 (not ?L3) (not ?S3) (not ?T3)))))
(let (($x906508 (>= ?K4 ?Q3)))
(let (($x839199 (<= ?K4 ?Q3)))
(let (($x235580 (>= ?G4 ?M3)))
(let (($x586277 (<= ?G4 ?M3)))
(let (($x886410 (not ?X3)))
(let (($x381455 (and ?K3 ?O4 $x886410 $x586277 $x235580 (<= ?I4 ?C1) (>= ?I4 ?C1) (<= ?J4 ?U2) (>= ?J4 ?U2) $x839199 $x906508)))
(let (($x569541 (and ?V3 ?N4 ?A4 $x586277 $x235580 (<= ?I4 ?C1) (>= ?I4 ?C1) (<= ?J4 ?U2) (>= ?J4 ?U2) $x839199 $x906508)))
(let (($x583512 (and ?Y3 ?M4 (not ?D4) $x586277 $x235580 (<= ?I4 1.0) (>= ?I4 1.0) (<= ?J4 2.0) (>= ?J4 2.0) $x839199 $x906508)))
(let (($x386044 (and ?B4 ?F4 (<= ?G4 ?H4) (>= ?G4 ?H4) (<= ?I4 1.0) (>= ?I4 1.0) (<= ?J4 2.0) (>= ?J4 2.0) (<= ?K4 ?L4) (>= ?K4 ?L4))))
(let (($x636783 (or (not ?E4) (and ?F4 (not ?M4) (not ?N4) (not ?O4)) (and ?M4 (not ?F4) (not ?N4) (not ?O4)) (and ?N4 (not ?F4) (not ?M4) (not ?O4)) (and ?O4 (not ?F4) (not ?M4) (not ?N4)))))
(let (($x178668 (>= ?E5 ?I1)))
(let (($x570855 (<= ?E5 ?I1)))
(let (($x646362 (>= ?D5 ?H1)))
(let (($x307934 (<= ?D5 ?H1)))
(let (($x618722 (>= ?A5 ?R2)))
(let (($x156436 (<= ?A5 ?R2)))
(let (($x417468 (not ?R4)))
(let (($x233306 (and ?E4 ?H5 $x417468 $x156436 $x618722 (<= ?B5 ?F1) (>= ?B5 ?F1) (<= ?C5 ?K4) (>= ?C5 ?K4) $x307934 $x646362 $x570855 $x178668)))
(let (($x637830 (and ?P4 ?G5 ?U4 $x156436 $x618722 (<= ?B5 ?F1) (>= ?B5 ?F1) (<= ?C5 ?K4) (>= ?C5 ?K4) $x307934 $x646362 $x570855 $x178668)))
(let (($x494982 (not ?X4)))
(let (($x176068 (and ?S4 ?F5 $x494982 $x156436 $x618722 (<= ?B5 1.0) (>= ?B5 1.0) (<= ?C5 2.0) (>= ?C5 2.0) $x307934 $x646362 $x570855 $x178668)))
(let (($x473699 (and ?V4 ?Z4 (<= ?A5 1.0) (>= ?A5 1.0) (<= ?B5 1.0) (>= ?B5 1.0) (<= ?C5 2.0) (>= ?C5 2.0) (<= ?D5 ?G4) (>= ?D5 ?G4) (<= ?E5 1.0) (>= ?E5 1.0))))
(let (($x440516 (not ?Y4)))
(let (($x138886 (or $x440516 (and ?Z4 (not ?F5) (not ?G5) (not ?H5)) (and ?F5 (not ?Z4) (not ?G5) (not ?H5)) (and ?G5 (not ?Z4) (not ?F5) (not ?H5)) (and ?H5 (not ?Z4) (not ?F5) (not ?G5)))))
(let (($x857769 (and ?Y4 (not ?U) (<= ?Z5 ?N2) (>= ?Z5 ?N2) (<= ?A6 ?O2) (>= ?A6 ?O2) (<= ?B6 ?P2) (>= ?B6 ?P2) (<= ?C6 ?G4) (>= ?C6 ?G4) (<= ?D6 ?A5) (>= ?D6 ?A5) (<= ?E6 ?O3) (>= ?E6 ?O3) (<= ?F6 ?P3) (>= ?F6 ?P3) (<= ?G6 ?I4) (>= ?G6 ?I4) (<= ?H6 ?J4) (>= ?H6 ?J4) (<= ?I6 ?W2) (>= ?I6 ?W2) (<= ?J6 ?B5) (>= ?J6 ?B5) (<= ?K6 ?C5) (>= ?K6 ?C5) (<= ?L6 ?D5) (>= ?L6 ?D5) (<= ?M6 ?E5) (>= ?M6 ?E5))))
(let (($x214710 (and ?I5 ?K5 (<= ?Z5 ?N2) (>= ?Z5 ?N2) (<= ?A6 ?O2) (>= ?A6 ?O2) (<= ?B6 ?P2) (>= ?B6 ?P2) (<= ?C6 ?G4) (>= ?C6 ?G4) (<= ?D6 ?A5) (>= ?D6 ?A5) (<= ?E6 ?O3) (>= ?E6 ?O3) (<= ?F6 ?P3) (>= ?F6 ?P3) (<= ?G6 ?I4) (>= ?G6 ?I4) (<= ?H6 ?J4) (>= ?H6 ?J4) (<= ?I6 ?W2) (>= ?I6 ?W2) (<= ?J6 ?B5) (>= ?J6 ?B5) (<= ?K6 ?C5) (>= ?K6 ?C5) (<= ?L6 ?D5) (>= ?L6 ?D5) (<= ?M6 ?E5) (>= ?M6 ?E5))))
(let (($x132023 (|cp-rel-bb.i.i| ?A ?B ?C ?D ?E ?F ?G ?H ?I ?J ?K ?L ?M ?N ?O ?P ?Q ?R ?S ?T ?U ?V ?W ?X ?Y ?Z ?A1 ?B1 ?C1 ?D1 ?E1 ?F1 ?G1 ?H1 ?I1)))
(let (($x596879 (and $x132023 (= ?X4 (= ?F1 1.0)) (= ?U4 (= ?X5 0.0)) (= ?R4 (= ?K4 0.0)) (= ?L4 (ite ?W5 0.0 ?Q3)) (= ?W5 (= ?F1 1.0)) (= ?H4 (+ 1.0 ?M3)) (= ?D4 (and ?V5 ?U5)) (= ?V5 (= ?R2 0.0)) (= ?U5 (= ?C1 1.0)) (= ?A4 (= ?T5 0.0)) (= ?X3 (= ?U2 0.0)) (= ?R3 (ite ?S5 0.0 ?G1)) (= ?S5 (= ?F1 1.0)) (= ?N3 (+ 1.0 ?Q2)) (= ?J3 (and ?R5 ?Q5)) (= ?R5 (= ?R2 0.0)) (= ?Q5 (= ?A1 1.0)) (= ?G3 (= ?P5 0.0)) (= ?D3 (= ?S2 0.0)) (= ?V2 (ite ?O5 0.0 ?D1)) (= ?O5 (= ?C1 1.0)) (= ?T2 (ite ?N5 0.0 ?B1)) (= ?N5 (= ?A1 1.0)) (= ?I2 (= ?M5 ?S)) (= ?M5 (+ 1.0 ?E1)) (= ?F2 (= ?V 2.0)) (= ?K2 (= ?V 1.0)) (= ?A2 (not (<= 2.0 ?V))) (= ?N1 (or ?S1 ?U)) (= ?S1 (or ?R1 ?Q1)) (= ?R1 (or ?P1 ?O1)) (= ?Q1 (= ?G1 0.0)) (= ?P1 (= ?D1 0.0)) (= ?O1 (= ?B1 0.0)) (= ?X1 (= ?L5 0.0)) (= ?M1 (= ?W 0.0)) (or $x214710 $x857769) (or (not ?I5) ?J5) (or (not ?I5) (and ?Y4 ?J5 ?U)) $x138886 (or $x440516 $x473699 $x176068 $x637830 $x233306) (or (not ?V4) ?W4) (or (not ?V4) (and ?S4 ?W4 ?X4)) (or (not ?S4) ?T4) (or (not ?S4) (and ?P4 ?T4 (not ?U4))) (or (not ?P4) ?Q4) (or (not ?P4) (and ?E4 ?Q4 ?R4)) $x636783 (or (not ?E4) $x386044 $x583512 $x569541 $x381455) (or (not ?B4) ?C4) (or (not ?B4) (and ?Y3 ?C4 ?D4)) (or (not ?Y3) ?Z3) (or (not ?Y3) (and ?V3 ?Z3 (not ?A4))) (or (not ?V3) ?W3) (or (not ?V3) (and ?K3 ?W3 ?X3)) $x856230 (or (not ?K3) $x864910 $x266332 $x895353 $x150856) (or (not ?H3) ?I3) (or (not ?H3) (and ?E3 ?I3 ?J3)) (or (not ?E3) ?F3) (or (not ?E3) (and ?B3 ?F3 (not ?G3))) (or (not ?B3) ?C3) (or (not ?B3) (and ?L2 ?C3 ?D3)) $x164713 (or (not ?L2) $x609887 $x867134 $x530439 $x525134 $x243378) (or (not ?G2) (and ?H2 (not ?J2)) (and ?J2 (not ?H2))) (or (not ?G2) (and ?D2 ?H2 ?I2) (and ?Y1 ?J2 ?K2)) (or (not ?D2) ?E2) (or (not ?D2) (and ?B2 ?E2 ?F2)) (or (not ?B2) ?C2) (or (not ?B2) (and ?V1 ?C2 (not ?A2))) (or (not ?Y1) ?Z1) (or (not ?Y1) (and ?V1 ?Z1 ?A2)) (or (not ?V1) ?W1) (or (not ?V1) (and ?T1 ?W1 (not ?X1))) (or (not ?J1) ?L1) (or (not ?J1) (and ?K1 ?L1 (not ?M1))) (or (not ?T1) ?U1) (or (not ?T1) (and ?K1 ?U1 ?M1)) (= ?K5 (= ?Y5 0.0)))))
(=> $x596879 $x111033)))))))))))))))))))))))))))))))))))))))))))))))))))))))))))))
)
(assert (forall ((?A Real) (?B Real) (?C Real) (?D Real) (?E Real) (?F Real) (?G Real) (?H Real) (?I Real) (?J Real) (?K Real) (?L Real) (?M Real) (?N Real) (?O Real) (?P Real) (?Q Real) (?R Real) (?S Real) (?T Real) (?U Bool) (?V Real) (?W Real) (?X Real) (?Y Real) (?Z Real) (?A1 Real) (?B1 Real) (?C1 Real) (?D1 Real) (?E1 Real) (?F1 Real) (?G1 Real) (?H1 Real) (?I1 Real) (?J1 Bool) (?K1 Bool) (?L1 Bool) (?M1 Bool) (?N1 Bool) (?O1 Bool) (?P1 Bool) (?Q1 Bool) (?R1 Bool) (?S1 Bool) (?T1 Bool) (?U1 Bool) (?V1 Real) (?W1 Real) (?X1 Real) (?Y1 Real) (?Z1 Bool) (?A2 Bool) (?B2 Bool) (?C2 Bool) (?D2 Bool) (?E2 Bool) (?F2 Bool) (?G2 Bool) (?H2 Bool) (?I2 Bool) (?J2 Bool) (?K2 Real) (?L2 Bool) (?M2 Bool) (?N2 Bool) (?O2 Real) (?P2 Real) (?Q2 Real) (?R2 Bool) (?S2 Bool) (?T2 Bool) (?U2 Bool) (?V2 Bool) (?W2 Bool) (?X2 Bool) (?Y2 Real) (?Z2 Bool) (?A3 Real) (?B3 Bool) (?C3 Bool) (?D3 Bool) (?E3 Bool) (?F3 Bool) (?G3 Real) (?H3 Real) (?I3 Real) (?J3 Real) (?K3 Real) (?L3 Real) (?M3 Real) (?N3 Real) (?O3 Real) (?P3 Real) (?Q3 Real) (?R3 Real) (?S3 Real) (?T3 Real) )(let (($x347121 (|cp-rel-__UFO__0| ?A ?B ?C ?D ?E ?F ?G ?H ?I ?J ?K ?L ?M ?N ?O ?P ?Q ?R ?G3 ?H3 ?I3 ?S ?J3 ?K3 ?L3 ?M3 ?N3 ?O3 ?P3 ?Q3 ?R3 ?S3 ?T3 ?T ?U ?V ?W ?X ?Y ?Z ?A1 ?B1 ?C1 ?D1 ?E1 ?F1 ?G1 ?H1 ?I1 ?V2 ?V1 ?W1 ?Y2 ?A3 ?K2 ?P2 ?Q2 ?O2)))
(let (($x279347 (not ?S1)))
(let (($x212385 (and ?N1 ?Z1 $x279347 (<= ?V1 ?I1) (>= ?V1 ?I1) (<= ?W1 ?P) (>= ?W1 ?P) (<= ?X1 ?R) (>= ?X1 ?R))))
(let (($x629154 (and ?Q1 ?U1 (<= ?V1 0.0) (>= ?V1 0.0) (<= ?W1 ?H1) (>= ?W1 ?H1) (<= ?X1 ?Y1) (>= ?X1 ?Y1))))
(let (($x477654 (not ?T1)))
(let (($x549361 (not ?I2)))
(let (($x842959 (or $x549361 (and ?F2 ?J2 (<= ?K2 ?W) (>= ?K2 ?W)) (and ?A2 ?L2 ?H2 (<= ?K2 0.0) (>= ?K2 0.0)) (and ?D2 ?M2 (<= ?K2 ?W) (>= ?K2 ?W)))))
(let (($x280886 (or $x549361 (and ?J2 (not ?L2) (not ?M2)) (and ?L2 (not ?J2) (not ?M2)) (and ?M2 (not ?J2) (not ?L2)))))
(let (($x788763 (|cp-rel-bb.i.i| ?A ?B ?C ?D ?E ?F ?G ?H ?I ?J ?K ?L ?M ?N ?O ?P ?Q ?R ?S ?T ?U ?V ?W ?X ?Y ?Z ?A1 ?B1 ?C1 ?D1 ?E1 ?F1 ?G1 ?H1 ?I1)))
(let (($x633759 (and $x788763 (= ?F3 (or ?V2 ?E3)) (= ?E3 (= ?P2 0.0)) (= ?D3 (= ?K2 0.0)) (= ?O2 (ite ?C3 2.0 ?A3)) (= ?C3 (= ?A3 1.0)) (= ?Q2 (ite ?B3 2.0 ?Y2)) (= ?P2 (ite ?B3 0.0 ?T)) (= ?B3 (= ?Y2 1.0)) (= ?H2 (= ?A3 1.0)) (= ?C2 (= ?V 1.0)) (= ?A3 (ite ?Z2 1.0 ?X)) (= ?Z2 (= ?X 0.0)) (= ?Y2 (ite ?X2 1.0 ?X1)) (= ?X2 (= ?X1 0.0)) (= ?Y1 (ite ?W2 ?R 0.0)) (= ?W2 (= ?P ?H1)) (= ?S1 (= ?I1 1.0)) (= ?P1 (or ?V2 ?U)) (= ?V2 (or ?U2 ?T2)) (= ?U2 (or ?S2 ?R2)) (= ?T2 (= ?G1 0.0)) (= ?S2 (= ?D1 0.0)) (= ?R2 (= ?B1 0.0)) (= ?M1 (= ?W 0.0)) (not (= ?N2 true)) (= ?I2 true) $x280886 $x842959 (or (not ?F2) ?G2) (or (not ?F2) (and ?A2 ?G2 (not ?H2))) (or (not ?D2) ?E2) (or (not ?D2) (and ?T1 ?E2 (not ?C2))) (or (not ?A2) ?B2) (or (not ?A2) (and ?T1 ?B2 ?C2)) (or $x477654 (and ?U1 (not ?Z1)) (and ?Z1 (not ?U1))) (or $x477654 $x629154 $x212385) (or (not ?Q1) ?R1) (or (not ?Q1) (and ?N1 ?R1 ?S1)) (or (not ?N1) ?O1) (or (not ?N1) (and ?J1 ?O1 (not ?P1))) (or (not ?J1) ?L1) (or (not ?J1) (and ?K1 ?L1 (not ?M1))) (= ?N2 (or ?F3 ?D3)))))
(=> $x633759 $x347121))))))))))))
)
(assert (forall ((?A Real) (?B Real) (?C Real) (?D Real) (?E Real) (?F Real) (?G Real) (?H Real) (?I Real) (?J Real) (?K Real) (?L Real) (?M Real) (?N Real) (?O Real) (?P Real) (?Q Real) (?R Real) (?S Real) (?T Real) (?U Bool) (?V Real) (?W Real) (?X Real) (?Y Real) (?Z Real) (?A1 Real) (?B1 Bool) (?C1 Real) (?D1 Real) (?E1 Real) (?F1 Real) (?G1 Real) (?H1 Real) (?I1 Real) (?J1 Real) (?K1 Real) (?L1 Real) (?M1 Real) (?N1 Real) (?O1 Real) (?P1 Real) (?Q1 Real) (?R1 Real) (?S1 Real) (?T1 Real) (?U1 Real) (?V1 Real) (?W1 Real) (?X1 Real) (?Y1 Real) (?Z1 Real) (?A2 Real) (?B2 Real) (?C2 Real) (?D2 Real) (?E2 Real) (?F2 Real) (?G2 Bool) )(let (($x304345 (|cp-rel-__UFO__0| ?A ?B ?C ?D ?E ?F ?G ?H ?I ?J ?K ?L ?M ?N ?O ?P ?Q ?R ?E1 ?F1 ?G1 ?S ?H1 ?I1 ?J1 ?K1 ?L1 ?M1 ?N1 ?O1 ?P1 ?Q1 ?R1 ?T ?U ?S1 ?T1 ?U1 ?V1 ?W1 ?X1 ?Y1 ?Z1 ?A2 ?B2 ?C2 ?D2 ?E2 ?F2 ?B1 ?V ?W ?C1 ?D1 ?X ?Z ?A1 ?Y)))
(=> (and $x304345 (= ?G2 true)) $x304345)))
)
(assert (forall ((?A Real) (?B Real) (?C Real) (?D Real) (?E Real) (?F Real) (?G Real) (?H Real) (?I Real) (?J Real) (?K Real) (?L Real) (?M Real) (?N Real) (?O Real) (?P Real) (?Q Real) (?R Real) (?S Real) (?T Real) (?U Bool) (?V Real) (?W Real) (?X Real) (?Y Real) (?Z Real) (?A1 Real) (?B1 Real) (?C1 Real) (?D1 Real) (?E1 Real) (?F1 Real) (?G1 Real) (?H1 Real) (?I1 Real) (?J1 Bool) (?K1 Bool) (?L1 Bool) (?M1 Bool) (?N1 Bool) (?O1 Bool) (?P1 Bool) (?Q1 Bool) (?R1 Bool) (?S1 Bool) (?T1 Bool) (?U1 Bool) (?V1 Bool) (?W1 Bool) (?X1 Real) (?Y1 Real) )(let (($x229187 (|cp-rel-bb.i.i| ?A ?B ?C ?D ?E ?F ?G ?H ?I ?J ?K ?L ?M ?N ?O ?P ?Q ?R ?S ?T ?U ?V ?W ?X ?Y ?Z ?A1 ?B1 ?C1 ?D1 ?E1 ?F1 ?G1 ?H1 ?I1)))
(let (($x693181 (and $x229187 (= ?Y1 (+ 1.0 ?E1)) (= ?V1 (= ?V 2.0)) (= ?Q1 (not (<= 2.0 ?V))) (= ?P1 (= ?X1 0.0)) (= ?K1 (= ?W 0.0)) (not (= ?W1 true)) (= ?T1 true) (or (not ?T1) ?U1) (or (not ?T1) (and ?R1 ?U1 ?V1)) (or (not ?R1) ?S1) (or (not ?R1) (and ?N1 ?S1 (not ?Q1))) (or (not ?N1) ?O1) (or (not ?N1) (and ?L1 ?O1 (not ?P1))) (or (not ?L1) ?M1) (or (not ?L1) (and ?J1 ?M1 ?K1)) (= ?W1 (= ?Y1 ?S)))))
(=> $x693181 |cp-rel-bb8.i.i.i|))))
)
(assert (not cp-rel-bb8.i.i.i))
(check-sat)
